71
125
100	2
98	2
97	1
96	1
95	5
94	2
93	5
92	2
91	2
90	4
89	4
88	3
87	1
86	3
85	3
84	3
83	1
82	1
81	2
80	1
79	3
78	4
77	4
75	3
74	3
73	4
72	3
71	3
70	2
69	1
68	2
67	2
66	1
65	4
64	6
63	2
62	5
61	2
60	3
59	1
58	3
57	3
56	5
55	2
54	2
51	4
50	2
49	4
48	2
47	5
46	3
45	3
44	3
42	4
41	2
40	6
39	3
38	3
37	2
36	1
35	2
34	6
33	1
32	2
31	2
30	4
29	2
28	6
27	2
26	4
25	1
